# Objective value = 4
Q2_0_0 0
Q3_0_0 0
Q2_0_1 0
Q3_0_1 0
Q2_0_2 0
Q3_0_2 0
Q2_0_3 1
Q3_0_3 0
Q2_0_4 0
Q3_0_4 0
Q2_0_5 0
Q3_0_5 0
Q2_0_6 0
Q3_0_6 0
Q2_0_7 0
Q3_0_7 0
Q2_1_0 0
Q3_1_0 0
Q2_1_1 0
Q3_1_1 0
Q2_1_2 0
Q3_1_2 0
Q2_1_3 0
Q3_1_3 0
Q2_1_4 0
Q3_1_4 0
Q2_1_5 0
Q3_1_5 0
Q2_1_6 0
Q3_1_6 0
Q2_1_7 0
Q3_1_7 0
Q2_2_0 0
Q3_2_0 0
Q2_2_1 0
Q3_2_1 0
Q2_2_2 0
Q3_2_2 0
Q2_2_3 1
Q3_2_3 0
Q2_2_4 0
Q3_2_4 0
Q2_2_5 0
Q3_2_5 0
Q2_2_6 0
Q3_2_6 0
Q2_2_7 0
Q3_2_7 0
L0 0
L1 1
L2 0
L3 1
L4 1
L5 0
L6 1
L7 0
L8 1
L9 0
L10 1
L11 0
L12 1
L13 1
L14 1
L15 1
L16 0
L17 0
L18 0
L19 0
L20 0
L21 0
L22 0
L23 0
L24 0
L25 0
L26 0
L27 0
L28 0
L29 0
L30 0
L31 0
X0_0 0
X0_1 0
X0_2 0
X0_3 0
X0_4 0
X0_5 0
X0_6 0
X0_7 0
X0_8 0
X0_9 0
X0_10 0
X0_11 0
X0_12 0
X0_13 0
X0_14 0
X0_15 0
X0_16 0
X0_17 0
X0_18 0
X0_19 0
X0_20 0
X0_21 0
X0_22 0
X0_23 0
X0_24 0
X0_25 0
X0_26 0
X0_27 0
X0_28 0
X0_29 1
X0_30 0
X0_31 0
Y0_0 0
Y0_1 0
Y0_2 0
Y0_3 0
Y0_4 0
Y0_5 0
Y0_6 0
Y0_7 0
Y0_24 0
Y0_25 0
Y0_26 0
Y0_27 0
Y0_28 0
Y0_29 0
Y0_30 0
Y0_31 0
Y0_16 0
Y0_17 0
Y0_18 0
Y0_19 0
Y0_20 0
Y0_21 0
Y0_22 0
Y0_23 0
Y0_8 0
Y0_9 0
Y0_10 0
Y0_11 0
Y0_12 0
Y0_13 1
Y0_14 0
Y0_15 0
X1_0 0
Y1_0 0
X1_1 0
Y1_1 0
X1_2 0
Y1_2 0
X1_3 0
Y1_3 0
X1_4 0
Y1_4 0
X1_5 0
Y1_5 0
X1_6 0
Y1_6 0
X1_7 0
Y1_7 0
X1_8 0
Y1_24 0
X1_9 0
Y1_25 0
X1_10 0
Y1_26 0
X1_11 0
Y1_27 0
X1_12 0
Y1_28 0
X1_13 0
Y1_29 0
X1_14 0
Y1_30 0
X1_15 0
Y1_31 0
X1_16 0
Y1_16 0
X1_17 0
Y1_17 0
X1_18 0
Y1_18 0
X1_19 0
Y1_19 0
X1_20 0
Y1_20 0
X1_21 0
Y1_21 0
X1_22 0
Y1_22 0
X1_23 0
Y1_23 0
X1_24 0
Y1_8 0
X1_25 0
Y1_9 0
X1_26 0
Y1_10 0
X1_27 0
Y1_11 0
X1_28 0
Y1_12 0
X1_29 0
Y1_13 0
X1_30 0
Y1_14 0
X1_31 0
Y1_15 0
X2_0 0
Y2_0 0
X2_1 0
Y2_1 0
X2_2 0
Y2_2 0
X2_3 0
Y2_3 0
X2_4 0
Y2_4 0
X2_5 0
Y2_5 0
X2_6 0
Y2_6 0
X2_7 0
Y2_7 0
X2_8 0
Y2_24 0
X2_9 0
Y2_25 0
X2_10 0
Y2_26 0
X2_11 0
Y2_27 0
X2_12 0
Y2_28 0
X2_13 0
Y2_29 0
X2_14 0
Y2_30 0
X2_15 0
Y2_31 0
X2_16 0
Y2_16 0
X2_17 0
Y2_17 0
X2_18 0
Y2_18 0
X2_19 0
Y2_19 0
X2_20 0
Y2_20 0
X2_21 0
Y2_21 0
X2_22 0
Y2_22 0
X2_23 0
Y2_23 0
X2_24 0
Y2_8 0
X2_25 0
Y2_9 0
X2_26 0
Y2_10 0
X2_27 0
Y2_11 0
X2_28 0
Y2_12 0
X2_29 1
Y2_13 1
X2_30 0
Y2_14 0
X2_31 0
Y2_15 0
W0_0 0
W0_1 0
W0_2 0
W0_3 0
W0_4 0
W0_5 0
W0_6 0
W0_7 0
W0_8 0
W0_9 0
W0_10 0
W0_11 0
W0_12 0
W0_13 1
W0_14 0
W0_15 1
W0_16 0
W0_17 0
W0_18 0
W0_19 0
W0_20 0
W0_21 0
W0_22 0
W0_23 0
W0_24 0
W0_25 0
W0_26 0
W0_27 0
W0_28 0
W0_29 0
W0_30 0
W0_31 0
W1_0 0
W1_1 0
W1_2 0
W1_3 0
W1_4 0
W1_5 0
W1_6 0
W1_7 0
W1_8 0
W1_9 0
W1_10 0
W1_11 0
W1_12 0
W1_13 0
W1_14 0
W1_15 0
W1_16 0
W1_17 0
W1_18 0
W1_19 0
W1_20 0
W1_21 0
W1_22 0
W1_23 0
W1_24 0
W1_25 0
W1_26 0
W1_27 0
W1_28 0
W1_29 0
W1_30 0
W1_31 0
W2_0 0
W2_1 0
W2_2 0
W2_3 0
W2_4 0
W2_5 0
W2_6 0
W2_7 0
W2_8 0
W2_9 0
W2_10 0
W2_11 0
W2_12 0
W2_13 1
W2_14 0
W2_15 1
W2_16 0
W2_17 0
W2_18 0
W2_19 0
W2_20 0
W2_21 0
W2_22 0
W2_23 0
W2_24 0
W2_25 0
W2_26 0
W2_27 0
W2_28 0
W2_29 0
W2_30 0
W2_31 0
Q0_0 0
Q0_1 0
Q0_2 0
Q0_3 1
Q0_4 0
Q0_5 0
Q0_6 0
Q0_7 0
Q1_0 0
Q1_1 0
Q1_2 0
Q1_3 0
Q1_4 0
Q1_5 0
Q1_6 0
Q1_7 0
Q2_0 0
Q2_1 0
Q2_2 0
Q2_3 1
Q2_4 0
Q2_5 0
Q2_6 0
Q2_7 0
T0_0 0
U0_0 0
V0_0 0
Z0_0 0
T0_1 0
U0_1 0
V0_1 0
Z0_1 1
T0_2 0
U0_2 0
V0_2 0
Z0_2 0
T0_3 0
U0_3 0
V0_3 0
Z0_3 1
T0_4 0
U0_4 0
V0_4 1
Z0_4 1
T0_5 0
U0_5 0
V0_5 0
Z0_5 0
T0_6 0
U0_6 0
V0_6 1
Z0_6 1
T0_7 0
U0_7 0
V0_7 0
Z0_7 0
T0_8 0
U0_8 1
V0_8 1
Z0_8 1
T0_9 0
U0_9 0
V0_9 0
Z0_9 0
T0_10 0
U0_10 1
V0_10 1
Z0_10 1
T0_11 0
U0_11 0
V0_11 0
Z0_11 0
T0_12 1
U0_12 1
V0_12 1
Z0_12 1
T0_13 1
U0_13 1
V0_13 1
Z0_13 1
T0_14 1
U0_14 1
V0_14 1
Z0_14 1
T0_15 1
U0_15 1
V0_15 1
Z0_15 1
T0_16 0
U0_16 0
V0_16 0
Z0_16 0
T0_17 0
U0_17 0
V0_17 0
Z0_17 0
T0_18 0
U0_18 0
V0_18 0
Z0_18 0
T0_19 0
U0_19 0
V0_19 0
Z0_19 0
T0_20 0
U0_20 0
V0_20 0
Z0_20 0
T0_21 0
U0_21 0
V0_21 0
Z0_21 0
T0_22 0
U0_22 0
V0_22 0
Z0_22 0
T0_23 0
U0_23 0
V0_23 0
Z0_23 0
T0_24 0
U0_24 0
V0_24 0
Z0_24 0
T0_25 0
U0_25 0
V0_25 0
Z0_25 0
T0_26 0
U0_26 0
V0_26 0
Z0_26 0
T0_27 0
U0_27 0
V0_27 0
Z0_27 0
T0_28 0
U0_28 0
V0_28 0
Z0_28 0
T0_29 0
U0_29 0
V0_29 0
Z0_29 0
T0_30 0
U0_30 0
V0_30 0
Z0_30 0
T0_31 0
U0_31 0
V0_31 0
Z0_31 0
T1_0 0
U1_0 0
V1_0 0
Z1_0 0
T1_1 0
U1_1 0
V1_1 0
Z1_1 0
T1_2 0
U1_2 0
V1_2 0
Z1_2 0
T1_3 0
U1_3 0
V1_3 0
Z1_3 0
T1_4 0
U1_4 0
V1_4 0
Z1_4 0
T1_5 0
U1_5 0
V1_5 0
Z1_5 0
T1_6 0
U1_6 0
V1_6 0
Z1_6 0
T1_7 0
U1_7 0
V1_7 0
Z1_7 0
T1_8 0
U1_8 0
V1_8 0
Z1_8 0
T1_9 0
U1_9 0
V1_9 0
Z1_9 0
T1_10 0
U1_10 0
V1_10 0
Z1_10 0
T1_11 0
U1_11 0
V1_11 0
Z1_11 0
T1_12 0
U1_12 0
V1_12 0
Z1_12 0
T1_13 0
U1_13 0
V1_13 0
Z1_13 0
T1_14 0
U1_14 0
V1_14 0
Z1_14 0
T1_15 0
U1_15 0
V1_15 0
Z1_15 0
T1_16 0
U1_16 0
V1_16 0
Z1_16 0
T1_17 0
U1_17 0
V1_17 0
Z1_17 0
T1_18 0
U1_18 0
V1_18 0
Z1_18 0
T1_19 0
U1_19 0
V1_19 0
Z1_19 0
T1_20 0
U1_20 0
V1_20 0
Z1_20 0
T1_21 0
U1_21 0
V1_21 0
Z1_21 0
T1_22 0
U1_22 0
V1_22 0
Z1_22 0
T1_23 0
U1_23 0
V1_23 0
Z1_23 0
T1_24 0
U1_24 0
V1_24 0
Z1_24 0
T1_25 0
U1_25 0
V1_25 0
Z1_25 0
T1_26 0
U1_26 0
V1_26 0
Z1_26 0
T1_27 0
U1_27 0
V1_27 0
Z1_27 0
T1_28 0
U1_28 0
V1_28 0
Z1_28 0
T1_29 0
U1_29 0
V1_29 0
Z1_29 0
T1_30 0
U1_30 0
V1_30 0
Z1_30 0
T1_31 0
U1_31 0
V1_31 0
Z1_31 0
T2_0 0
U2_0 0
V2_0 0
Z2_0 0
T2_1 0
U2_1 0
V2_1 0
Z2_1 1
T2_2 0
U2_2 0
V2_2 0
Z2_2 0
T2_3 0
U2_3 0
V2_3 0
Z2_3 1
T2_4 0
U2_4 0
V2_4 1
Z2_4 1
T2_5 0
U2_5 0
V2_5 0
Z2_5 0
T2_6 0
U2_6 0
V2_6 1
Z2_6 1
T2_7 0
U2_7 0
V2_7 0
Z2_7 0
T2_8 0
U2_8 1
V2_8 1
Z2_8 1
T2_9 0
U2_9 0
V2_9 0
Z2_9 0
T2_10 0
U2_10 1
V2_10 1
Z2_10 1
T2_11 0
U2_11 0
V2_11 0
Z2_11 0
T2_12 1
U2_12 1
V2_12 1
Z2_12 1
T2_13 1
U2_13 1
V2_13 1
Z2_13 1
T2_14 1
U2_14 1
V2_14 1
Z2_14 1
T2_15 1
U2_15 1
V2_15 1
Z2_15 1
T2_16 0
U2_16 0
V2_16 0
Z2_16 0
T2_17 0
U2_17 0
V2_17 0
Z2_17 0
T2_18 0
U2_18 0
V2_18 0
Z2_18 0
T2_19 0
U2_19 0
V2_19 0
Z2_19 0
T2_20 0
U2_20 0
V2_20 0
Z2_20 0
T2_21 0
U2_21 0
V2_21 0
Z2_21 0
T2_22 0
U2_22 0
V2_22 0
Z2_22 0
T2_23 0
U2_23 0
V2_23 0
Z2_23 0
T2_24 0
U2_24 0
V2_24 0
Z2_24 0
T2_25 0
U2_25 0
V2_25 0
Z2_25 0
T2_26 0
U2_26 0
V2_26 0
Z2_26 0
T2_27 0
U2_27 0
V2_27 0
Z2_27 0
T2_28 0
U2_28 0
V2_28 0
Z2_28 0
T2_29 0
U2_29 0
V2_29 0
Z2_29 0
T2_30 0
U2_30 0
V2_30 0
Z2_30 0
T2_31 0
U2_31 0
V2_31 0
Z2_31 0
X3_0 0
X3_1 1
X3_2 0
X3_3 1
X3_4 1
X3_5 0
X3_6 1
X3_7 0
X3_8 1
X3_9 0
X3_10 1
X3_11 0
X3_12 1
X3_13 1
X3_14 1
X3_15 1
X3_16 0
X3_17 0
X3_18 0
X3_19 0
X3_20 0
X3_21 0
X3_22 0
X3_23 0
X3_24 0
X3_25 0
X3_26 0
X3_27 0
X3_28 0
X3_29 0
X3_30 0
X3_31 0
